
******************************************************************************
This program contains Ipopt, a library for large-scale nonlinear optimization.
 Ipopt is released as open source code under the Eclipse Public License (EPL).
         For more information visit http://projects.coin-or.org/Ipopt
******************************************************************************

This is Ipopt version 3.12.6, running with linear solver ma57.

Number of nonzeros in equality constraint Jacobian...:        2
Number of nonzeros in inequality constraint Jacobian.:        0
Number of nonzeros in Lagrangian Hessian.............:        4

Total number of variables............................:        3
                     variables with only lower bounds:        0
                variables with lower and upper bounds:        0
                     variables with only upper bounds:        0
Total number of equality constraints.................:        1
Total number of inequality constraints...............:        0
        inequality constraints with only lower bounds:        0
   inequality constraints with lower and upper bounds:        0
        inequality constraints with only upper bounds:        0

iter    objective    inf_pr   inf_du lg(mu)  ||d||  lg(rg) alpha_du alpha_pr  ls
   0  4.0100000e+00 7.00e+00 1.51e+01  -1.0 0.00e+00    -  0.00e+00 0.00e+00   0
   1  1.2247409e-02 3.15e+00 7.27e-01  -1.0 2.41e+00    -  1.00e+00 1.00e+00f  1
   2  1.6458697e-02 3.14e+00 7.22e-01  -1.0 9.47e+00   0.0 1.00e+00 3.12e-02h  6
   3  1.4749342e-02 3.13e+00 7.00e-01  -1.0 1.65e+01   0.4 1.00e+00 7.81e-03h  8
   4  7.1314938e+00 2.98e+00 1.14e+02  -1.0 2.86e+00   0.9 1.00e+00 5.00e-01h  2
   5  1.8302594e+03 2.47e+00 1.07e+03  -1.0 1.18e+01    -  1.00e+00 1.00e+00h  1
   6  4.5815917e-01 2.21e-01 5.41e+01  -1.0 4.19e+01    -  1.00e+00 1.00e+00f  1
   7  4.5798418e-01 2.51e-03 1.07e+00  -1.0 5.01e-02   0.4 1.00e+00 1.00e+00h  1
   8  4.5770441e-01 4.40e-07 1.17e-02  -1.0 1.48e-02  -0.1 1.00e+00 1.00e+00h  1
   9  4.5718561e-01 7.70e-07 1.16e-02  -3.8 4.42e-02  -0.6 1.00e+00 1.00e+00h  1
iter    objective    inf_pr   inf_du lg(mu)  ||d||  lg(rg) alpha_du alpha_pr  ls
  10  4.5562853e-01 6.96e-06 1.14e-02  -3.8 1.33e-01  -1.1 1.00e+00 1.00e+00f  1
  11  4.5095266e-01 6.32e-05 2.85e-02  -3.8 3.98e-01  -1.5 1.00e+00 1.00e+00f  1
  12  4.1906279e-01 6.57e-03 2.66e+00  -3.8 1.03e+03    -  1.00e+00 3.91e-03f  9
  13  3.7733522e-01 4.02e-03 1.49e+00  -3.8 2.65e+00    -  1.00e+00 1.00e+00h  1
  14  3.5548056e-01 1.12e-02 3.50e+00  -3.8 4.28e+00    -  1.00e+00 1.00e+00h  1
  15  3.0615665e-01 1.82e-03 5.33e-01  -3.8 1.25e+00    -  1.00e+00 1.00e+00h  1
  16  2.8516712e-01 5.59e-03 1.43e+00  -3.8 8.81e+00    -  1.00e+00 2.50e-01f  3
  17  2.5700483e-01 8.17e-03 1.75e+00  -3.8 2.68e+00    -  1.00e+00 1.00e+00h  1
  18  2.2681856e-01 4.69e-03 8.71e-01  -3.8 1.70e+00    -  1.00e+00 1.00e+00h  1
  19  2.1633288e-01 1.61e-02 2.38e+00  -3.8 3.05e+00    -  1.00e+00 1.00e+00h  1
iter    objective    inf_pr   inf_du lg(mu)  ||d||  lg(rg) alpha_du alpha_pr  ls
  20  1.7636790e-01 2.03e-03 2.73e-01  -3.8 6.34e-01    -  1.00e+00 1.00e+00h  1
  21  1.6122084e-01 9.57e-03 1.04e+00  -3.8 6.78e+00    -  1.00e+00 2.50e-01h  3
  22  1.3988706e-01 7.21e-03 6.32e-01  -3.8 1.25e+00    -  1.00e+00 1.00e+00h  1
  23  1.2553625e-01 1.64e-02 1.09e+00  -3.8 1.72e+00    -  1.00e+00 1.00e+00h  1
  24  1.0461703e-01 4.99e-03 2.66e-01  -3.8 6.08e-01    -  1.00e+00 1.00e+00h  1
  25  1.8590846e-01 1.33e-03 2.29e+00  -3.8 2.58e+00    -  1.00e+00 1.00e+00H  1
  26  6.7842514e-02 6.07e-04 6.15e-02  -3.8 2.15e-01    -  1.00e+00 1.00e+00f  1
  27  5.9543917e-02 2.68e-02 3.97e-01  -3.8 6.47e+00    -  1.00e+00 1.25e-01f  4
  28  4.8508872e-02 2.52e-02 1.78e-01  -3.8 3.91e-01    -  1.00e+00 1.00e+00h  1
  29  4.5875301e-02 1.48e-01 4.03e-01  -3.8 7.45e-01    -  1.00e+00 1.00e+00h  1
iter    objective    inf_pr   inf_du lg(mu)  ||d||  lg(rg) alpha_du alpha_pr  ls
  30  3.1528648e-02 2.51e+00 5.69e-02  -3.8 1.59e+00    -  1.00e+00 1.00e+00h  1
  31  3.9807351e-02 1.55e+00 2.84e-01  -3.8 1.15e+00    -  1.00e+00 5.00e-01h  2
  32  1.8350281e-02 6.70e-01 3.03e-02  -3.8 8.18e-01    -  1.00e+00 1.00e+00h  1
  33  1.5702302e-02 2.16e+00 1.12e-01  -3.8 5.15e+00    -  1.00e+00 2.50e-01h  3
  34  1.0672617e-02 9.89e-01 2.16e-02  -3.8 9.95e-01    -  1.00e+00 1.00e+00h  1
  35  8.6868622e-03 6.79e+00 8.12e-02  -3.8 5.02e+00    -  1.00e+00 5.00e-01h  2
  36  5.6505392e-03 2.10e+00 1.69e-02  -3.8 1.45e+00    -  1.00e+00 1.00e+00h  1
  37  8.1387463e-03 1.67e+00 1.54e-01  -3.8 1.29e+00    -  1.00e+00 1.00e+00h  1
  38  1.9433518e-03 5.28e+00 6.98e-03  -3.8 2.30e+00    -  1.00e+00 1.00e+00h  1
  39  1.9478739e-03 3.18e+00 1.04e-01  -3.8 1.47e+00    -  1.00e+00 5.00e-01h  2
iter    objective    inf_pr   inf_du lg(mu)  ||d||  lg(rg) alpha_du alpha_pr  ls
  40  4.8892386e-04 1.80e+00 1.85e-03  -3.8 1.34e+00    -  1.00e+00 1.00e+00h  1
  41  2.4683217e-04 1.23e+01 2.94e-02  -3.8 6.75e+00    -  1.00e+00 5.00e-01h  2
  42  7.2367676e-05 3.65e+00 5.83e-03  -3.8 1.91e+00    -  1.00e+00 1.00e+00h  1
  43  1.7570938e-05 1.98e+00 1.30e-02  -3.8 1.41e+00    -  1.00e+00 1.00e+00h  1
  44  9.9150854e-07 1.14e+02 6.00e-04  -3.8 1.07e+01    -  1.00e+00 1.00e+00h  1
  45  9.1470260e-09 2.91e+01 3.44e-04  -3.8 5.40e+00    -  1.00e+00 1.00e+00h  1
  46  4.4172180e-13 7.82e+00 4.17e-07  -3.8 2.80e+00    -  1.00e+00 1.00e+00h  1
  47  2.1084921e-21 2.63e+00 1.66e-10  -3.8 1.62e+00    -  1.00e+00 1.00e+00h  1
  48  5.2855190e-22 2.00e+00 8.28e-11  -3.8 1.66e+00    -  1.00e+00 5.00e-01h  2
  49  5.2934173e-22 2.00e+00 8.27e-11  -3.8 2.62e+01    -  1.00e+00 1.95e-03h 10
iter    objective    inf_pr   inf_du lg(mu)  ||d||  lg(rg) alpha_du alpha_pr  ls
  50  5.3656242e-22 2.00e+00 8.26e-11  -3.8 7.73e+01    -  1.00e+00 2.44e-04h 13
  51  5.4804726e-22 2.00e+00 8.26e-11  -3.8 1.69e+02    -  1.00e+00 3.05e-05h 16
  52r 5.4804726e-22 2.00e+00 9.99e+02   0.3 0.00e+00    -  0.00e+00 4.77e-07R 22
  53r 4.0661740e-02 1.90e-02 7.35e+02   0.3 5.22e+02    -  1.00e+00 3.79e-03f  1
  54  3.9997036e-02 3.16e-04 4.10e-03  -3.8 1.89e-02  -2.0 1.00e+00 1.00e+00h  1
  55  3.9989071e-02 2.74e-04 8.86e-05  -3.8 1.66e-02    -  1.00e+00 1.00e+00h  1
  56  3.9999951e-02 1.23e-06 2.96e-07  -5.7 1.11e-03    -  1.00e+00 1.00e+00h  1
  57  4.0000000e-02 2.51e-14 5.66e-12  -8.6 2.53e-06    -  1.00e+00 1.00e+00h  1

Number of Iterations....: 57

                                   (scaled)                 (unscaled)
Objective...............:   3.9999999999998995e-02    3.9999999999998995e-02
Dual infeasibility......:   5.6599933073719910e-12    5.6599933073719910e-12
Constraint violation....:   2.5091040356537951e-14    2.5091040356537951e-14
Complementarity.........:   0.0000000000000000e+00    0.0000000000000000e+00
Overall NLP error.......:   5.6599933073719910e-12    5.6599933073719910e-12


Number of objective function evaluations             = 166
Number of objective gradient evaluations             = 58
Number of equality constraint evaluations            = 175
Number of inequality constraint evaluations          = 0
Number of equality constraint Jacobian evaluations   = 59
Number of inequality constraint Jacobian evaluations = 0
Number of Lagrangian Hessian evaluations             = 57
Total CPU secs in IPOPT (w/o function evaluations)   =      0.013
Total CPU secs in NLP function evaluations           =      0.003

EXIT: Optimal Solution Found.

************************ CUTEst statistics ************************


 Package used            :  IPOPT
 Problem                 :  HS27      
 # variables             =               3
 # constraints           =               1
 # objective functions   =        0.2250000E+03
 # objective gradients   =        0.5900000E+02
 # objective Hessians    =        0.5700000E+02
 # Hessian-vector prdct  =        0.0000000E+00
 # constraints functions =        0.2360000E+03
 # constraints gradients =        0.6100000E+02
 # constraints Hessians  =        0.5700000E+02
 Exit code               =               0
 Final f                 =   0.4000000E-01
 Set up time             =            0.00 seconds
 Solve time              =            0.07 seconds


******************************************************************

System Time =       0.0189999994 s.
